%chk=tp.chk
%nprocshared=60
%mem=16000MB
#p opt b3lyp/6-311g(d,p) em=GD3BJ pop=nbo geom=connectivity

complex-tp

0 2
 N                 18.52150400  121.96870200  213.80220000
 H                 18.54226200  121.64808900  212.81328800
 H                 19.19346000  121.40248700  214.35573100
 H                 18.79880900  122.96989400  213.84649500
 C                 17.18599600  121.80727400  214.34297500
 H                 16.96532500  120.73925300  214.35274500
 C                 17.01517100  122.44242300  215.74197100
 H                 16.97441900  123.53153100  215.67267700
 H                 17.88585300  122.23732400  216.35363900
 C                 15.80779100  121.91766200  216.52805000
 H                 14.88537900  122.12800000  215.98823000
 H                 15.88545700  120.83321600  216.60525100
 C                 15.74800400  122.52216200  217.93947600
 H                 16.73776900  122.47706300  218.39627600
 H                 15.49392400  123.58007800  217.87069100
 C                 14.75714000  121.80398600  218.86210400
 H                 13.76459000  121.76233300  218.41696400
 H                 15.07364100  120.77611400  219.03919200
 N                 14.64060100  122.46145000  220.16037500
 H                 13.94446100  121.96244800  220.75084700
 H                 15.56739600  122.45617300  220.63344300
 H                 14.33590900  123.44628900  220.02421100
 C                 16.28657400  122.53021700  213.37412700
 O                 16.65254700  123.56397800  212.82949100
 N                 15.11648300  121.91794600  213.16628500
 H                 14.85252500  121.09435000  213.66704700
 C                 14.28715900  122.44937900  212.11094100
 H                 14.58619200  121.87452600  211.24123600
 H                 14.54516900  123.47668800  211.88192400
 C                 12.83251200  122.12485000  212.35816000
 O                 12.48467900  121.19792000  213.08044100
 N                 12.01973400  122.99376200  211.72309400
 C                 12.42506900  124.45356600  211.80743300
 H                 12.91889400  124.85070900  210.92256700
 H                 13.11732900  124.61827400  212.63514300
 C                 10.58903000  122.98665200  211.98067400
 H                 10.26847700  122.04212000  212.39625600
 C                 10.32230500  124.19277600  212.88601800
 H                 10.65317800  123.96141900  213.88949800
 H                  9.27655400  124.49183600  212.97435100
 C                 11.21007800  125.26470700  212.26198200
 H                 10.72044600  125.72748700  211.40434200
 H                 11.46552700  126.05964600  212.96394300
 C                  9.77364400  123.26786600  210.71437100
 O                  8.85678400  124.07346600  210.66777100
 N                 10.19574200  122.53881200  209.68773200
 C                 11.60567500  122.85407700  209.18006800
 H                 12.31270200  122.03625000  209.32264900
 H                 11.98822100  123.76282900  209.59798000
 C                  9.54380700  122.57698400  208.39214100
 H                  8.46181900  122.66163000  208.49567800
 C                 10.11560300  123.68463200  207.54666700
 H                  9.83174300  124.62626100  208.01272500
 H                  9.78349200  123.68082200  206.50765400
 C                 11.57900800  123.40578600  207.73249100
 H                 12.17414800  124.30641500  207.57402900
 H                 11.91452000  122.66718500  207.00728300
 C                  9.88103200  121.23019200  207.79893900
 O                 10.69183200  120.50604300  208.36355700
 N                  9.20648700  120.89548600  206.67823000
 H                  8.60196500  121.55386400  206.23165500
 C                  9.27658100  119.52088300  206.21422400
 H                  8.90599900  118.91550700  207.04423200
 C                  8.38973600  119.25405800  204.98369400
 H                  7.37494600  119.58379500  205.18743600
 H                  8.31425800  118.17292900  204.86222900
 C                  8.87133700  119.84873300  203.64797900
 H                  8.51532000  119.20988200  202.83872500
 H                  9.95796500  119.82439800  203.57261700
 C                  8.35822900  121.26679200  203.38690600
 H                  8.79107700  121.64877300  202.46238000
 H                  8.61979100  121.95016900  204.19403300
 N                  6.89872600  121.24828400  203.29515600
 H                  6.39738200  120.74661800  204.00150700
 C                  6.18307100  121.83337200  202.30891900
 N                  6.76969800  122.50177600  201.31903100
 H                  7.76575600  122.57806000  201.29592000
 H                  6.21986500  122.92215000  200.59784400
 N                  4.85861900  121.73471600  202.32918700
 H                  4.40277800  121.22232300  203.05942800
 H                  4.30896100  122.17249800  201.61654100
 C                 10.73287400  119.12687600  205.95646700
 O                 11.63742700  119.95260700  205.93823100
 N                 10.88191400  117.80913700  205.80822100
 H                 10.05930900  117.24159700  205.82715000
 C                 12.17207300  117.15451400  205.65456000
 H                 12.63237500  117.20206700  206.64276800
 C                 11.90636500  115.70029700  205.28942600
 H                 11.16659500  115.33962400  205.99681700
 H                 12.82201300  115.14768700  205.47764300
 C                 11.40080700  115.42706400  203.85850300
 H                 11.25993700  114.35158100  203.74999500
 H                 12.16446000  115.70124500  203.13205900
 C                 10.08370100  116.14500600  203.52147300
 H                 10.24836300  117.21060600  203.36380000
 H                  9.34022200  116.03799100  204.31326100
 N                  9.50220300  115.65668600  202.27726700
 H                  9.65011900  116.19270800  201.44617100
 C                  8.73188000  114.54621900  202.22210900
 N                  8.53197500  113.79146500  203.30103800
 H                  7.95525200  112.97654600  203.24856200
 H                  8.96247000  114.04389800  204.16825000
 N                  8.16103700  114.20679100  201.07064300
 H                  7.58652400  113.39035600  201.01613500
 H                  8.30316200  114.77075500  200.25709000
 C                 13.11077700  117.83519600  204.64834200
 O                 14.30849600  117.55251300  204.67991000
 O                 12.63210900  118.64109500  203.85255200

 1 2 1.0 3 1.0 4 1.0 5 1.0
 2
 3
 4
 5 7 1.0 23 1.0 6 1.0
 6
 7 10 1.0 8 1.0 9 1.0
 8
 9
 10 13 1.0 11 1.0 12 1.0
 11
 12
 13 16 1.0 14 1.0 15 1.0
 14
 15
 16 19 1.0 17 1.0 18 1.0
 17
 18
 19 20 1.0 21 1.0 22 1.0
 20
 21
 22
 23 24 2.0 25 1.0
 24
 25 26 1.0 27 1.0
 26
 27 28 1.0 29 1.0 30 1.0
 28
 29
 30 31 2.0 32 1.0
 31
 32 36 1.0 33 1.0
 33 34 1.0 35 1.0 41 1.0
 34
 35
 36 38 1.0 44 1.0 37 1.0
 37
 38 41 1.0 39 1.0 40 1.0
 39
 40
 41 42 1.0 43 1.0
 42
 43
 44 45 2.0 46 1.0
 45
 46 50 1.0 47 1.0
 47 48 1.0 49 1.0 55 1.0
 48
 49
 50 52 1.0 58 1.0 51 1.0
 51
 52 55 1.0 53 1.0 54 1.0
 53
 54
 55 56 1.0 57 1.0
 56
 57
 58 59 2.0 60 1.0
 59
 60 61 1.0 62 1.0
 61
 62 63 1.0 64 1.0 82 1.0
 63
 64 65 1.0 66 1.0 67 1.0
 65
 66
 67 68 1.0 69 1.0 70 1.0
 68
 69
 70 71 1.0 72 1.0 73 1.0
 71
 72
 73 74 1.0 75 1.0
 74
 75 76 2.0 79 1.0
 76 77 1.0 78 1.0
 77
 78
 79 80 1.0 81 1.0
 80
 81
 82 83 2.0 84 1.0
 83
 84 85 1.0 86 1.0
 85
 86 87 1.0 88 1.0 106 1.0
 87
 88 89 1.0 90 1.0 91 1.0
 89
 90
 91 92 1.0 93 1.0 94 1.0
 92
 93
 94 95 1.0 96 1.0 97 1.0
 95
 96
 97 98 1.0 99 1.0
 98
 99 100 2.0 103 1.0
 100 101 1.0 102 1.0
 101
 102
 103 104 1.0 105 1.0
 104
 105
 106 107 2.0 108 1.0
 107
 108


